(declare-const in20 Int)
(declare-const in22 Int)
(declare-const in21 Int)
(declare-const in24 Int)
(declare-const in23 Int)
(declare-const in26 Int)
(declare-const in25 Int)
(declare-const in27 Int)
(declare-const in0 Int)
(declare-const in2 Int)
(declare-const in1 Int)
(declare-const in4 Int)
(declare-const in3 Int)
(declare-const in6 Int)
(declare-const in5 Int)
(declare-const in8 Int)
(declare-const in7 Int)
(declare-const in11 Int)
(declare-const in10 Int)
(declare-const in9 Int)
(declare-const in13 Int)
(declare-const in12 Int)
(declare-const in15 Int)
(declare-const in14 Int)
(declare-const in17 Int)
(declare-const in16 Int)
(declare-const in19 Int)
(declare-const in18 Int)

(assert (and (and (and (and (and (and (and (and (and (and (and (and (and (and (and (and (and (and (and (and (and (and (and (and (and (and (and (and (and (and (and (and (and (and (and (and (and (and (and (and (and (and (and (and (and (and (and (and (and (and (and (and (and (and (and (and (and (and (and (and (and (and (and (and (and (and (and (and (and (and (and  ( <=  in0 in1)  ( <=  in2 in3))  ( <=  in0 in2))  ( <=  in1 in2))  ( <=  in4 in5))  ( <=  in4 in6))  ( <=  in5 in6))  ( <=  in0 in4))  ( <=  in1 in4))  ( <=  in2 in4))  ( <=  in3 in4))  ( <=  in7 in8))  ( <=  in9 in10))  ( <=  in7 in9))  ( <=  in8 in9))  ( <=  in11 in12))  ( <=  in11 in13))  ( <=  in12 in13))  ( <=  in7 in11))  ( <=  in8 in11))  ( <=  in9 in11))  ( <=  in10 in11))  ( <=  in0 in7))  ( <=  in1 in7))  ( <=  in2 in7))  ( <=  in3 in7))  ( <=  in4 in7))  ( <=  in5 in7))  ( <=  in6 in7))  ( <=  in14 in15))  ( <=  in16 in17))  ( <=  in14 in16))  ( <=  in15 in16))  ( <=  in18 in19))  ( <=  in18 in20))  ( <=  in19 in20))  ( <=  in14 in18))  ( <=  in15 in18))  ( <=  in16 in18))  ( <=  in17 in18))  ( <=  in21 in22))  ( <=  in23 in24))  ( <=  in21 in23))  ( <=  in22 in23))  ( <=  in25 in26))  ( <=  in25 in27))  ( <=  in26 in27))  ( <=  in21 in25))  ( <=  in22 in25))  ( <=  in23 in25))  ( <=  in24 in25))  ( <=  in14 in21))  ( <=  in15 in21))  ( <=  in16 in21))  ( <=  in17 in21))  ( <=  in18 in21))  ( <=  in19 in21))  ( <=  in20 in21))  ( <=  in0 in14))  ( <=  in1 in14))  ( <=  in2 in14))  ( <=  in3 in14))  ( <=  in4 in14))  ( <=  in5 in14))  ( <=  in6 in14))  ( <=  in7 in14))  ( <=  in8 in14))  ( <=  in9 in14))  ( <=  in10 in14))  ( <=  in11 in14))  ( <=  in12 in14))  ( <=  in13 in14)))

(check-sat)
(get-model)